Version identifier: 22.1.1.0 | 2022-11-28 | 9160aff4d
CPXPARAM_ClockType                               1
CPXPARAM_Read_DataCheck                          1
CPXPARAM_Threads                                 1
CPXPARAM_TimeLimit                               7200
CPXPARAM_MIP_Tolerances_AbsMIPGap                0
CPXPARAM_MIP_Tolerances_MIPGap                   0
CPXPARAM_MIP_Tolerances_Integrality              0
Tried aggregator 2 times.
MIP Presolve eliminated 1247 rows and 4 columns.
MIP Presolve modified 1308 coefficients.
Aggregator did 450 substitutions.
Reduced MIP has 4324 rows, 2246 columns, and 13616 nonzeros.
Reduced MIP has 2246 binaries, 0 generals, 0 SOSs, and 0 indicators.
Presolve time = 0.02 sec. (15.21 ticks)
Probing time = 0.01 sec. (2.46 ticks)
Tried aggregator 1 time.
Detecting symmetries...
MIP Presolve eliminated 250 rows and 1 columns.
Reduced MIP has 4074 rows, 2245 columns, and 12865 nonzeros.
Reduced MIP has 2245 binaries, 0 generals, 0 SOSs, and 0 indicators.
Presolve time = 0.02 sec. (13.16 ticks)
Probing time = 0.00 sec. (2.25 ticks)
Clique table members: 2270.
MIP emphasis: balance optimality and feasibility.
MIP search method: dynamic search.
Parallel mode: none, using 1 thread.
Root relaxation solution time = 0.28 sec. (284.64 ticks)

        Nodes                                         Cuts/
   Node  Left     Objective  IInf  Best Integer    Best Bound    ItCnt     Gap

      0     0      800.0000   768                    800.0000     2199         
      0     0      800.0000   765                    Cuts: 48     2445         
*     0+    0                          638.0000      800.0000            25.39%
      0     0      800.0000   765      638.0000      Cuts: 31     2836   25.39%
      0     0      800.0000   765      638.0000   ZeroHalf: 8     3024   25.39%
*     0+    0                          652.0000      800.0000            22.70%
Detecting symmetries...
      0     2      800.0000   622      652.0000      800.0000     3024   22.70%
Elapsed time = 2.59 sec. (1882.89 ticks, tree = 0.01 MB, solutions = 2)
      2     4      800.0000   756      652.0000      800.0000     5603   22.70%
      4     6      800.0000   705      652.0000      800.0000     6933   22.70%
     10    12      800.0000   713      652.0000      800.0000     8041   22.70%
     19    21      800.0000   667      652.0000      800.0000    10273   22.70%
     21    23      800.0000   637      652.0000      800.0000    10721   22.70%
     30    32      800.0000   628      652.0000      800.0000    12451   22.70%
     40    42      800.0000   628      652.0000      800.0000    13832   22.70%
     47    49      800.0000   610      652.0000      800.0000    18018   22.70%
     49    51      800.0000   656      652.0000      800.0000    19709   22.70%
     61    63      800.0000   567      652.0000      800.0000    24331   22.70%
Elapsed time = 6.69 sec. (6229.14 ticks, tree = 0.90 MB, solutions = 2)
     80    82      798.6667   550      652.0000      800.0000    30205   22.70%
     98    96      800.0000   690      652.0000      800.0000    36990   22.70%
    118   116      800.0000   593      652.0000      800.0000    41862   22.70%
    129   121    infeasible            652.0000      800.0000    47701   22.70%
    140   120      800.0000   586      652.0000      800.0000    53032   22.70%
    155   123      796.1111   645      652.0000      800.0000    58831   22.70%
    173   131      800.0000   590      652.0000      800.0000    63740   22.70%
    188   138    infeasible            652.0000      800.0000    69317   22.70%
    200   142      798.6667   608      652.0000      800.0000    75535   22.70%
    207   141    infeasible            652.0000      800.0000    82077   22.70%
Elapsed time = 16.42 sec. (16523.92 ticks, tree = 3.30 MB, solutions = 2)
    220   148      800.0000   605      652.0000      800.0000    87157   22.70%
    236   154    infeasible            652.0000      800.0000    92984   22.70%
    244   152      800.0000   573      652.0000      800.0000    98629   22.70%
    251   151    infeasible            652.0000      800.0000   104423   22.70%
    267   163    infeasible            652.0000      800.0000   109327   22.70%
    280   162    infeasible            652.0000      800.0000   115340   22.70%
    294   170      798.5556   508      652.0000      800.0000   121165   22.70%
    310   172    infeasible            652.0000      800.0000   127086   22.70%
    325   177      798.5714   590      652.0000      800.0000   132573   22.70%
    337   179      799.0000   480      652.0000      800.0000   139587   22.70%
Elapsed time = 25.79 sec. (26767.93 ticks, tree = 4.55 MB, solutions = 2)
    349   181    infeasible            652.0000      800.0000   146731   22.70%
    363   185    infeasible            652.0000      800.0000   151846   22.70%
    376   188      799.7500   637      652.0000      800.0000   158442   22.70%
    388   190      798.4633   600      652.0000      800.0000   165549   22.70%
    400   190      799.7333   569      652.0000      800.0000   170571   22.70%
    411   191      799.7333   556      652.0000      800.0000   177522   22.70%
    423   191    infeasible            652.0000      800.0000   184298   22.70%
    433   191      799.9714   591      652.0000      800.0000   191526   22.70%
    441   187    infeasible            652.0000      800.0000   197921   22.70%
    455   193    infeasible            652.0000      800.0000   203751   22.70%
Elapsed time = 35.49 sec. (37343.91 ticks, tree = 5.04 MB, solutions = 2)
    469   197      799.8182   577      652.0000      800.0000   209906   22.70%
    480   196    infeasible            652.0000      800.0000   215749   22.70%
    489   195    infeasible            652.0000      800.0000   222271   22.70%
    501   201      799.2667   599      652.0000      800.0000   228211   22.70%
    509   199      797.0000   504      652.0000      800.0000   235863   22.70%
    518   200      798.5200   608      652.0000      800.0000   242687   22.70%
    530   202      800.0000   595      652.0000      800.0000   248171   22.70%
    546   210      800.0000   581      652.0000      800.0000   253503   22.70%
    560   216      799.6889   609      652.0000      800.0000   259312   22.70%
    574   216    infeasible            652.0000      800.0000   264835   22.70%
Elapsed time = 45.18 sec. (47767.24 ticks, tree = 5.76 MB, solutions = 2)
    584   220      800.0000   621      652.0000      800.0000   271060   22.70%
    593   221      798.3646   588      652.0000      800.0000   277472   22.70%
    606   226      800.0000   544      652.0000      800.0000   283236   22.70%
    616   224    infeasible            652.0000      800.0000   288951   22.70%
    627   223    infeasible            652.0000      800.0000   294310   22.70%
    637   221    infeasible            652.0000      800.0000   300489   22.70%
    648   224      797.9259   623      652.0000      800.0000   306128   22.70%
    656   226      793.7236   595      652.0000      800.0000   312254   22.70%
    667   225    infeasible            652.0000      800.0000   318475   22.70%
    682   232      800.0000   586      652.0000      800.0000   324310   22.70%
Elapsed time = 54.61 sec. (58020.55 ticks, tree = 6.26 MB, solutions = 2)
    688   234      798.6667   627      652.0000      800.0000   330571   22.70%
    696   234      795.2222   646      652.0000      800.0000   338295   22.70%
    705   233    infeasible            652.0000      800.0000   344866   22.70%
    719   233      799.0000   625      652.0000      800.0000   350447   22.70%
    731   239      798.4762   596      652.0000      800.0000   355550   22.70%
    746   246      800.0000   611      652.0000      800.0000   360763   22.70%
    760   254      800.0000   587      652.0000      800.0000   366175   22.70%
    770   256      797.2255   626      652.0000      800.0000   372830   22.70%
    782   258      799.2667   591      652.0000      800.0000   380100   22.70%
    792   262      797.3333   601      652.0000      800.0000   385986   22.70%
Elapsed time = 64.19 sec. (68309.21 ticks, tree = 7.26 MB, solutions = 2)
    801   259      798.6111   606      652.0000      800.0000   392555   22.70%
    812   264      799.4444   578      652.0000      800.0000   399113   22.70%
    821   263    infeasible            652.0000      800.0000   406220   22.70%
    830   266    infeasible            652.0000      800.0000   412705   22.70%
    843   271    infeasible            652.0000      800.0000   419655   22.70%
    851   273      795.7692   658      652.0000      800.0000   426544   22.70%
    859   273      798.0000   400      652.0000      800.0000   432888   22.70%
    872   274    infeasible            652.0000      800.0000   439692   22.70%
    885   279    infeasible            652.0000      800.0000   444559   22.70%
    896   282      799.0000   605      652.0000      800.0000   451058   22.70%
Elapsed time = 73.94 sec. (78871.71 ticks, tree = 7.91 MB, solutions = 2)
    909   291      798.6595   637      652.0000      800.0000   457352   22.70%
    921   295      794.1667   651      652.0000      800.0000   463787   22.70%
    933   299      800.0000   434      652.0000      800.0000   470524   22.70%
    943   301      798.3333   409      652.0000      800.0000   477040   22.70%
    954   302      798.6667   625      652.0000      800.0000   484019   22.70%
    964   300    infeasible            652.0000      800.0000   490455   22.70%
    972   304      795.5000   576      652.0000      800.0000   496577   22.70%
    988   308      796.7037   588      652.0000      800.0000   504121   22.70%
    998   306      796.7037   591      652.0000      800.0000   511458   22.70%
   1011   309      800.0000   564      652.0000      800.0000   517925   22.70%
Elapsed time = 83.50 sec. (89204.18 ticks, tree = 8.80 MB, solutions = 2)
   1023   311    infeasible            652.0000      800.0000   524041   22.70%
   1039   321        cutoff            652.0000      800.0000   529480   22.70%
   1052   322    infeasible            652.0000      800.0000   535600   22.70%
   1065   321      800.0000   488      652.0000      800.0000   541902   22.70%
   1076   318    infeasible            652.0000      800.0000   548095   22.70%
   1085   319    infeasible            652.0000      800.0000   554396   22.70%
   1093   321      799.5000   603      652.0000      800.0000   561027   22.70%
   1101   315    infeasible            652.0000      800.0000   567470   22.70%
   1111   315      799.6000   595      652.0000      800.0000   575633   22.70%
   1150   318    infeasible            652.0000      800.0000   600863   22.70%
Elapsed time = 95.83 sec. (102311.59 ticks, tree = 9.04 MB, solutions = 2)
   1187   327      799.6667   581      652.0000      800.0000   626083   22.70%
   1226   330      800.0000   599      652.0000      800.0000   652367   22.70%
   1264   340      798.1111   665      652.0000      800.0000   675177   22.70%
   1306   360      795.2667   653      652.0000      800.0000   700339   22.70%
   1337   367      799.7500   660      652.0000      800.0000   724185   22.70%
   1374   384      799.0383   645      652.0000      800.0000   747629   22.70%
   1418   404      798.9167   572      652.0000      800.0000   773020   22.70%
   1451   415      799.8000   601      652.0000      800.0000   796651   22.70%
   1485   427      799.9000   618      652.0000      800.0000   820597   22.70%
   1524   436    infeasible            652.0000      800.0000   845033   22.70%
Elapsed time = 132.64 sec. (141810.34 ticks, tree = 12.88 MB, solutions = 2)
   1550   442    infeasible            652.0000      800.0000   871248   22.70%
   1585   451      799.7500   599      652.0000      800.0000   894595   22.70%

Performing restart 1

Repeating presolve.
Tried aggregator 1 time.
MIP Presolve eliminated 0 rows and 1 columns.
Reduced MIP has 4074 rows, 2244 columns, and 12864 nonzeros.
Reduced MIP has 2244 binaries, 0 generals, 0 SOSs, and 0 indicators.
Presolve time = 0.01 sec. (7.13 ticks)
Tried aggregator 1 time.
Reduced MIP has 4074 rows, 2244 columns, and 12864 nonzeros.
Reduced MIP has 2244 binaries, 0 generals, 0 SOSs, and 0 indicators.
Presolve time = 0.01 sec. (9.24 ticks)
Represolve time = 0.05 sec. (30.78 ticks)
   1589     0      800.0000   748      652.0000  ZeroHalf: 13   897781   22.70%
   1589     0      800.0000   732      652.0000      Cuts: 73   897996   22.70%
   1589     0      800.0000   763      652.0000      Cuts: 99   898264   22.70%
   1589     0      800.0000   672      652.0000   ZeroHalf: 2   898332   22.70%
   1589     0      800.0000   672      652.0000     Cuts: 142   898753   22.70%
   1589     0      800.0000   681      652.0000   ZeroHalf: 4   898907   22.70%
   1589     0      800.0000   612      652.0000   ZeroHalf: 8   899069   22.70%
   1589     0      800.0000   662      652.0000     Cuts: 151   900245   22.70%
*  1589+    0                          736.0000      800.0000             8.70%
*  1589+    0                          794.0000      800.0000             0.76%
*  1589+    0                          800.0000      800.0000             0.00%
   1589     0        cutoff            800.0000      800.0000   900245    0.00%
   1589     0        cutoff            800.0000      800.0000   900245    0.00%

Implied bound cuts applied:  1
Zero-half cuts applied:  2

Root node processing (before b&c):
  Real time             =    2.58 sec. (1876.03 ticks)
Sequential b&c:
  Real time             =  144.24 sec. (152502.15 ticks)
                          ------------
Total (root+branch&cut) =  146.82 sec. (154378.18 ticks)
Solution is feasible.

---------------------
@@@ MIP_optimal
>>> Benchmark flat50-4.cnf k 5 OPT 800 TimeCost 147.761647939682 TimeSolve 147.40257477760315 TimeRead 0.0015652179718017578 TimeTrans 0.35750794410705566
